1420
98 186 254 419 518 810 899 1048 1147 1233
0 119 348 551 626 742 808 900 1147 1357
0 83 178 373 485 612 697 886 1045 1325
0 94 312 452 551 605 697 900 976 1039
0 186 274 356 451 550 680 775 843 982
0 274 355 419 518 899 979 1048 1110 1233
94 144 355 452 550 645 979 1045 1144 1286
0 98 171 253 438 518 612 697 808 1207
0 171 253 334 585 720 810 886 944 1110
69 119 230 451 518 574 775 971 1144 1203